0
Node Left Objective IInf Best_Integer Best_Bound ItCnt Gap
0+ 0 nan nan 136.4723 0.0000 nan 100.00%
0+ 0 nan nan 99.1655 0.0000 nan 100.00%
0 0 0.0000 27 99.1655 0.0000 121 100.00%
0+ 0 nan nan 95.2675 0.0000 nan 100.00%
0+ 0 nan nan 95.0381 0.0000 nan 100.00%
0+ 0 nan nan 89.5055 0.0000 nan 100.00%
0 2 0.0000 27 89.5055 0.0000 121 100.00%
CPXPARAM_MIP_Cuts_GUBCovers 0
1
Node Left Objective IInf Best_Integer Best_Bound ItCnt Gap
0+ 0 nan nan 136.4723 0.0000 nan 100.00%
0+ 0 nan nan 99.1655 0.0000 nan 100.00%
0 0 0.0000 27 99.1655 0.0000 118 100.00%
0+ 0 nan nan 78.3951 0.0000 nan 100.00%
0+ 0 nan nan 72.4902 0.0000 nan 100.00%
0 2 0.0000 27 72.4902 0.0000 118 100.00%
CPXPARAM_MIP_Cuts_GUBCovers 0
2
Node Left Objective IInf Best_Integer Best_Bound ItCnt Gap
0+ 0 nan nan 136.4723 0.0000 nan 100.00%
0+ 0 nan nan 69.8576 0.0000 nan 100.00%
0 0 0.0000 23 69.8576 0.0000 119 100.00%
0+ 0 nan nan 66.3460 0.0000 nan 100.00%
0+ 0 nan nan 64.8791 0.0000 nan 100.00%
0 2 0.0000 23 64.8791 0.0000 119 100.00%
CPXPARAM_MIP_Cuts_GUBCovers 0
3
Node Left Objective IInf Best_Integer Best_Bound ItCnt Gap
0+ 0 nan nan 136.4723 0.0000 nan 100.00%
0 0 0.0000 24 136.4723 0.0000 102 100.00%
0+ 0 nan nan 41.1390 0.0000 nan 100.00%
0+ 0 nan nan 37.0872 0.0000 nan 100.00%
0+ 0 nan nan 27.2178 0.0000 nan 100.00%
0 2 0.0000 23 27.2178 0.0000 102 100.00%
CPXPARAM_MIP_Cuts_GUBCovers 0
4
Node Left Objective IInf Best_Integer Best_Bound ItCnt Gap
0+ 0 nan nan 115.1924 0.0000 nan 100.00%
0+ 0 nan nan 108.1598 0.0000 nan 100.00%
0+ 0 nan nan 98.2525 0.0000 nan 100.00%
0 0 0.0000 27 98.2525 0.0000 128 100.00%
0+ 0 nan nan 83.0169 0.0000 nan 100.00%
0 2 0.0000 27 83.0169 0.0000 128 100.00%
CPXPARAM_MIP_Cuts_GUBCovers 0
5
Node Left Objective IInf Best_Integer Best_Bound ItCnt Gap
0+ 0 nan nan 115.1924 0.0000 nan 100.00%
0+ 0 nan nan 108.1598 0.0000 nan 100.00%
0+ 0 nan nan 79.8300 0.0000 nan 100.00%
0 0 0.0000 27 79.8300 0.0000 120 100.00%
0+ 0 nan nan 74.4608 0.0000 nan 100.00%
0+ 0 nan nan 57.6843 0.0000 nan 100.00%
0 2 0.0000 27 57.6843 0.0000 120 100.00%
CPXPARAM_MIP_Cuts_GUBCovers 0
6
Node Left Objective IInf Best_Integer Best_Bound ItCnt Gap
0+ 0 nan nan 115.1924 0.0000 nan 100.00%
0+ 0 nan nan 81.9438 0.0000 nan 100.00%
0 0 0.0000 23 81.9438 0.0000 119 100.00%
0+ 0 nan nan 80.6567 0.0000 nan 100.00%
0+ 0 nan nan 66.3441 0.0000 nan 100.00%
0+ 0 nan nan 61.2291 0.0000 nan 100.00%
0 2 0.0000 23 61.2291 0.0000 119 100.00%
CPXPARAM_MIP_Cuts_GUBCovers 0
7
Node Left Objective IInf Best_Integer Best_Bound ItCnt Gap
0+ 0 nan nan 115.1924 0.0000 nan 100.00%
0+ 0 nan nan 81.9438 0.0000 nan 100.00%
0 0 0.0000 23 81.9438 0.0000 110 100.00%
0+ 0 nan nan 71.2025 0.0000 nan 100.00%
0+ 0 nan nan 49.0304 0.0000 nan 100.00%
0+ 0 nan nan 46.7117 0.0000 nan 100.00%
0 2 0.0000 23 46.7117 0.0000 110 100.00%
CPXPARAM_MIP_Cuts_GUBCovers 0
8
Node Left Objective IInf Best_Integer Best_Bound ItCnt Gap
0+ 0 nan nan 131.6037 0.0000 nan 100.00%
0+ 0 nan nan 111.2422 0.0000 nan 100.00%
0 0 0.0000 27 111.2422 0.0000 112 100.00%
0+ 0 nan nan 101.7387 0.0000 nan 100.00%
0+ 0 nan nan 89.3324 0.0000 nan 100.00%
0 2 0.0000 27 89.3324 0.0000 112 100.00%
CPXPARAM_MIP_Cuts_GUBCovers 0
9
Node Left Objective IInf Best_Integer Best_Bound ItCnt Gap
0+ 0 nan nan 131.6037 0.0000 nan 100.00%
0+ 0 nan nan 111.2422 0.0000 nan 100.00%
0 0 0.0000 27 111.2422 0.0000 126 100.00%
0+ 0 nan nan 81.5623 0.0000 nan 100.00%
0+ 0 nan nan 71.8606 0.0000 nan 100.00%
0 2 0.0000 27 71.8606 0.0000 126 100.00%
CPXPARAM_MIP_Cuts_GUBCovers 0
10
Node Left Objective IInf Best_Integer Best_Bound ItCnt Gap
0+ 0 nan nan 131.6037 0.0000 nan 100.00%
0+ 0 nan nan 99.6733 0.0000 nan 100.00%
0 0 0.0000 23 99.6733 0.0000 121 100.00%
0+ 0 nan nan 87.1887 0.0000 nan 100.00%
0 2 0.0000 23 87.1887 0.0000 121 100.00%
CPXPARAM_MIP_Cuts_GUBCovers 0
11
Node Left Objective IInf Best_Integer Best_Bound ItCnt Gap
0+ 0 nan nan 131.6037 0.0000 nan 100.00%
0+ 0 nan nan 99.6733 0.0000 nan 100.00%
0 0 0.0000 23 99.6733 0.0000 127 100.00%
0+ 0 nan nan 63.9599 0.0000 nan 100.00%
0+ 0 nan nan 46.0689 0.0000 nan 100.00%
0+ 0 nan nan 44.8469 0.0000 nan 100.00%
0 2 0.0000 23 44.8469 0.0000 127 100.00%
CPXPARAM_MIP_Cuts_GUBCovers 0
12
Node Left Objective IInf Best_Integer Best_Bound ItCnt Gap
0+ 0 nan nan 110.3567 0.0000 nan 100.00%
0+ 0 nan nan 96.6816 0.0000 nan 100.00%
0 0 0.0000 27 96.6816 0.0000 120 100.00%
0+ 0 nan nan 80.2618 0.0000 nan 100.00%
0 2 0.0000 27 80.2618 0.0000 120 100.00%
CPXPARAM_MIP_Cuts_GUBCovers 0
13
Node Left Objective IInf Best_Integer Best_Bound ItCnt Gap
0+ 0 nan nan 110.3567 0.0000 nan 100.00%
0+ 0 nan nan 96.6816 0.0000 nan 100.00%
0 0 0.0000 27 96.6816 0.0000 117 100.00%
0+ 0 nan nan 78.4067 0.0000 nan 100.00%
0+ 0 nan nan 67.7856 0.0000 nan 100.00%
0+ 0 nan nan 63.8105 0.0000 nan 100.00%
0 2 0.0000 27 63.8105 0.0000 117 100.00%
CPXPARAM_MIP_Cuts_GUBCovers 0
14
Node Left Objective IInf Best_Integer Best_Bound ItCnt Gap
0+ 0 nan nan 110.3567 0.0000 nan 100.00%
0+ 0 nan nan 82.1268 0.0000 nan 100.00%
0 0 0.0000 23 82.1268 0.0000 114 100.00%
0+ 0 nan nan 71.3705 0.0000 nan 100.00%
0 2 0.0000 23 71.3705 0.0000 114 100.00%
CPXPARAM_MIP_Cuts_GUBCovers 0
15
Node Left Objective IInf Best_Integer Best_Bound ItCnt Gap
0+ 0 nan nan 110.3567 0.0000 nan 100.00%
0+ 0 nan nan 82.1268 0.0000 nan 100.00%
0 0 0.0000 23 82.1268 0.0000 111 100.00%
0+ 0 nan nan 53.3052 0.0000 nan 100.00%
0 2 0.0000 23 53.3052 0.0000 111 100.00%
CPXPARAM_MIP_Cuts_GUBCovers 0
16
Node Left Objective IInf Best_Integer Best_Bound ItCnt Gap
0+ 0 nan nan 109.2984 0.0000 nan 100.00%
0+ 0 nan nan 97.6971 0.0000 nan 100.00%
0 0 0.0000 27 97.6971 0.0000 122 100.00%
0+ 0 nan nan 97.4587 0.0000 nan 100.00%
0+ 0 nan nan 93.1174 0.0000 nan 100.00%
0+ 0 nan nan 85.2020 0.0000 nan 100.00%
0 2 0.0000 27 85.2020 0.0000 122 100.00%
CPXPARAM_MIP_Cuts_GUBCovers 0
17
Node Left Objective IInf Best_Integer Best_Bound ItCnt Gap
0+ 0 nan nan 109.2984 0.0000 nan 100.00%
0+ 0 nan nan 97.6971 0.0000 nan 100.00%
0 0 0.0000 27 97.6971 0.0000 113 100.00%
0+ 0 nan nan 69.1781 0.0000 nan 100.00%
0+ 0 nan nan 65.1115 0.0000 nan 100.00%
0+ 0 nan nan 64.9655 0.0000 nan 100.00%
0 2 0.0000 27 64.9655 0.0000 113 100.00%
CPXPARAM_MIP_Cuts_GUBCovers 0
18
Node Left Objective IInf Best_Integer Best_Bound ItCnt Gap
0+ 0 nan nan 109.2984 0.0000 nan 100.00%
0+ 0 nan nan 86.6088 0.0000 nan 100.00%
0 0 0.0000 23 86.6088 0.0000 119 100.00%
0+ 0 nan nan 82.8602 0.0000 nan 100.00%
0+ 0 nan nan 68.9508 0.0000 nan 100.00%
0 2 0.0000 23 68.9508 0.0000 119 100.00%
CPXPARAM_MIP_Cuts_GUBCovers 0
19
Node Left Objective IInf Best_Integer Best_Bound ItCnt Gap
0+ 0 nan nan 109.2984 0.0000 nan 100.00%
0+ 0 nan nan 86.6088 0.0000 nan 100.00%
0 0 0.0000 25 86.6088 0.0000 112 100.00%
0+ 0 nan nan 58.2160 0.0000 nan 100.00%
0+ 0 nan nan 53.2602 0.0000 nan 100.00%
0 2 0.0000 25 53.2602 0.0000 112 100.00%
CPXPARAM_MIP_Cuts_GUBCovers 0
20
Node Left Objective IInf Best_Integer Best_Bound ItCnt Gap
0+ 0 nan nan 93.3792 0.0000 nan 100.00%
0+ 0 nan nan 84.6822 0.0000 nan 100.00%
0 0 0.0000 27 84.6822 0.0000 123 100.00%
0+ 0 nan nan 70.9667 0.0000 nan 100.00%
0+ 0 nan nan 65.8831 0.0000 nan 100.00%
0+ 0 nan nan 65.3756 0.0000 nan 100.00%
0 2 0.0000 27 65.3756 0.0000 123 100.00%
CPXPARAM_MIP_Cuts_GUBCovers 0
21
Node Left Objective IInf Best_Integer Best_Bound ItCnt Gap
0+ 0 nan nan 93.3792 0.0000 nan 100.00%
0+ 0 nan nan 84.6822 0.0000 nan 100.00%
0 0 0.0000 27 84.6822 0.0000 129 100.00%
0+ 0 nan nan 53.3525 0.0000 nan 100.00%
0+ 0 nan nan 49.6460 0.0000 nan 100.00%
0+ 0 nan nan 45.2109 0.0000 nan 100.00%
0 2 0.0000 27 45.2109 0.0000 129 100.00%
CPXPARAM_MIP_Cuts_GUBCovers 0
22
Node Left Objective IInf Best_Integer Best_Bound ItCnt Gap
0+ 0 nan nan 93.3792 0.0000 nan 100.00%
0+ 0 nan nan 77.4137 0.0000 nan 100.00%
0 0 0.0000 23 77.4137 0.0000 122 100.00%
0+ 0 nan nan 61.3589 0.0000 nan 100.00%
0+ 0 nan nan 47.5262 0.0000 nan 100.00%
0+ 0 nan nan 46.8797 0.0000 nan 100.00%
0 2 0.0000 23 46.8797 0.0000 122 100.00%
CPXPARAM_MIP_Cuts_GUBCovers 0
23
Node Left Objective IInf Best_Integer Best_Bound ItCnt Gap
0+ 0 nan nan 93.3792 0.0000 nan 100.00%
0+ 0 nan nan 77.4137 0.0000 nan 100.00%
0 0 0.0000 23 77.4137 0.0000 112 100.00%
0+ 0 nan nan 50.0593 0.0000 nan 100.00%
0+ 0 nan nan 43.1932 0.0000 nan 100.00%
0+ 0 nan nan 33.4702 0.0000 nan 100.00%
0 2 0.0000 23 33.4702 0.0000 112 100.00%
CPXPARAM_MIP_Cuts_GUBCovers 0
24
Node Left Objective IInf Best_Integer Best_Bound ItCnt Gap
0+ 0 nan nan 94.5045 0.0000 nan 100.00%
0+ 0 nan nan 83.7373 0.0000 nan 100.00%
0 0 0.0000 27 83.7373 0.0000 126 100.00%
0+ 0 nan nan 81.1267 0.0000 nan 100.00%
0+ 0 nan nan 72.3863 0.0000 nan 100.00%
0+ 0 nan nan 55.0879 0.0000 nan 100.00%
0 2 0.0000 27 55.0879 0.0000 126 100.00%
CPXPARAM_MIP_Cuts_GUBCovers 0
25
Node Left Objective IInf Best_Integer Best_Bound ItCnt Gap
0+ 0 nan nan 94.5045 0.0000 nan 100.00%
0+ 0 nan nan 83.7373 0.0000 nan 100.00%
0 0 0.0000 27 83.7373 0.0000 113 100.00%
0+ 0 nan nan 57.0887 0.0000 nan 100.00%
0+ 0 nan nan 40.5947 0.0000 nan 100.00%
0 2 0.0000 27 40.5947 0.0000 113 100.00%
CPXPARAM_MIP_Cuts_GUBCovers 0
26
Node Left Objective IInf Best_Integer Best_Bound ItCnt Gap
0+ 0 nan nan 94.5045 0.0000 nan 100.00%
0+ 0 nan nan 77.4984 0.0000 nan 100.00%
0 0 0.0000 22 77.4984 0.0000 104 100.00%
0+ 0 nan nan 68.7941 0.0000 nan 100.00%
0+ 0 nan nan 58.6082 0.0000 nan 100.00%
0+ 0 nan nan 55.5297 0.0000 nan 100.00%
0 2 0.0000 22 55.5297 0.0000 104 100.00%
CPXPARAM_MIP_Cuts_GUBCovers 0
27
Node Left Objective IInf Best_Integer Best_Bound ItCnt Gap
0+ 0 nan nan 94.5045 0.0000 nan 100.00%
0 0 0.0000 23 94.5045 0.0000 105 100.00%
0+ 0 nan nan 26.1158 0.0000 nan 100.00%
0 2 0.0000 23 26.1158 0.0000 105 100.00%
CPXPARAM_MIP_Cuts_GUBCovers 0
28
Node Left Objective IInf Best_Integer Best_Bound ItCnt Gap
0+ 0 nan nan 133.7092 0.0000 nan 100.00%
0+ 0 nan nan 129.6212 0.0000 nan 100.00%
0+ 0 nan nan 108.6480 0.0000 nan 100.00%
0 0 0.0000 27 108.6480 0.0000 115 100.00%
0+ 0 nan nan 98.2922 0.0000 nan 100.00%
0 2 0.0000 27 98.2922 0.0000 115 100.00%
CPXPARAM_MIP_Cuts_GUBCovers 0
29
Node Left Objective IInf Best_Integer Best_Bound ItCnt Gap
0+ 0 nan nan 133.7092 0.0000 nan 100.00%
0+ 0 nan nan 129.6212 0.0000 nan 100.00%
0 0 0.0000 27 129.6212 0.0000 114 100.00%
0+ 0 nan nan 97.5918 0.0000 nan 100.00%
0+ 0 nan nan 79.6002 0.0000 nan 100.00%
0+ 0 nan nan 76.7405 0.0000 nan 100.00%
0+ 0 nan nan 72.6400 0.0000 nan 100.00%
0 2 0.0000 27 72.6400 0.0000 114 100.00%
CPXPARAM_MIP_Cuts_GUBCovers 0
30
Node Left Objective IInf Best_Integer Best_Bound ItCnt Gap
0+ 0 nan nan 133.7092 0.0000 nan 100.00%
0+ 0 nan nan 114.7297 0.0000 nan 100.00%
0 0 0.0000 22 114.7297 0.0000 117 100.00%
0+ 0 nan nan 105.5743 0.0000 nan 100.00%
0+ 0 nan nan 100.9559 0.0000 nan 100.00%
0+ 0 nan nan 93.0294 0.0000 nan 100.00%
0 2 0.0000 22 93.0294 0.0000 117 100.00%
CPXPARAM_MIP_Cuts_GUBCovers 0
31
Node Left Objective IInf Best_Integer Best_Bound ItCnt Gap
0+ 0 nan nan 133.7092 0.0000 nan 100.00%
0+ 0 nan nan 114.7297 0.0000 nan 100.00%
0 0 0.0000 22 114.7297 0.0000 119 100.00%
0+ 0 nan nan 72.7936 0.0000 nan 100.00%
0+ 0 nan nan 68.7438 0.0000 nan 100.00%
0+ 0 nan nan 62.0509 0.0000 nan 100.00%
0 2 0.0000 22 62.0509 0.0000 119 100.00%
CPXPARAM_MIP_Cuts_GUBCovers 0
32
Node Left Objective IInf Best_Integer Best_Bound ItCnt Gap
0+ 0 nan nan 110.7059 0.0000 nan 100.00%
0+ 0 nan nan 93.8685 0.0000 nan 100.00%
0+ 0 nan nan 88.1652 0.0000 nan 100.00%
0 0 0.0000 27 88.1652 0.0000 130 100.00%
0+ 0 nan nan 78.7277 0.0000 nan 100.00%
0 2 0.0000 27 78.7277 0.0000 130 100.00%
CPXPARAM_MIP_Cuts_GUBCovers 0
33
Node Left Objective IInf Best_Integer Best_Bound ItCnt Gap
0+ 0 nan nan 110.7059 0.0000 nan 100.00%
0+ 0 nan nan 93.8685 0.0000 nan 100.00%
0 0 0.0000 27 93.8685 0.0000 120 100.00%
0+ 0 nan nan 67.8253 0.0000 nan 100.00%
0+ 0 nan nan 57.8369 0.0000 nan 100.00%
0+ 0 nan nan 57.6240 0.0000 nan 100.00%
0+ 0 nan nan 56.5890 0.0000 nan 100.00%
0 2 0.0000 27 56.5890 0.0000 120 100.00%
CPXPARAM_MIP_Cuts_GUBCovers 0
34
Node Left Objective IInf Best_Integer Best_Bound ItCnt Gap
0+ 0 nan nan 110.7059 0.0000 nan 100.00%
0+ 0 nan nan 74.9711 0.0000 nan 100.00%
0 0 0.0000 23 74.9711 0.0000 119 100.00%
0+ 0 nan nan 70.1819 0.0000 nan 100.00%
0+ 0 nan nan 65.9156 0.0000 nan 100.00%
0+ 0 nan nan 64.3810 0.0000 nan 100.00%
0+ 0 nan nan 52.5823 0.0000 nan 100.00%
0 2 0.0000 23 52.5823 0.0000 119 100.00%
CPXPARAM_MIP_Cuts_GUBCovers 0
35
Node Left Objective IInf Best_Integer Best_Bound ItCnt Gap
0+ 0 nan nan 110.7059 0.0000 nan 100.00%
0+ 0 nan nan 74.9711 0.0000 nan 100.00%
0 0 0.0000 24 74.9711 0.0000 114 100.00%
0+ 0 nan nan 57.9339 0.0000 nan 100.00%
0+ 0 nan nan 38.2671 0.0000 nan 100.00%
0 2 0.0000 24 38.2671 0.0000 114 100.00%
CPXPARAM_MIP_Cuts_GUBCovers 0
36
Node Left Objective IInf Best_Integer Best_Bound ItCnt Gap
0+ 0 nan nan 123.7135 0.0000 nan 100.00%
0+ 0 nan nan 108.6148 0.0000 nan 100.00%
0 0 0.0000 27 108.6148 0.0000 117 100.00%
0+ 0 nan nan 98.7082 0.0000 nan 100.00%
0+ 0 nan nan 94.3601 0.0000 nan 100.00%
0+ 0 nan nan 68.5618 0.0000 nan 100.00%
0 2 0.0000 27 68.5618 0.0000 117 100.00%
CPXPARAM_MIP_Cuts_GUBCovers 0
37
Node Left Objective IInf Best_Integer Best_Bound ItCnt Gap
0+ 0 nan nan 123.7135 0.0000 nan 100.00%
0+ 0 nan nan 108.6148 0.0000 nan 100.00%
0 0 0.0000 27 108.6148 0.0000 118 100.00%
0+ 0 nan nan 74.7826 0.0000 nan 100.00%
0+ 0 nan nan 57.1954 0.0000 nan 100.00%
0+ 0 nan nan 52.4909 0.0000 nan 100.00%
0 2 0.0000 27 52.4909 0.0000 118 100.00%
CPXPARAM_MIP_Cuts_GUBCovers 0
38
Node Left Objective IInf Best_Integer Best_Bound ItCnt Gap
0+ 0 nan nan 123.7135 0.0000 nan 100.00%
0+ 0 nan nan 89.1896 0.0000 nan 100.00%
0 0 0.0000 23 89.1896 0.0000 119 100.00%
0+ 0 nan nan 83.5087 0.0000 nan 100.00%
0+ 0 nan nan 77.3674 0.0000 nan 100.00%
0+ 0 nan nan 76.1207 0.0000 nan 100.00%
0+ 0 nan nan 69.2468 0.0000 nan 100.00%
0 2 0.0000 23 69.2468 0.0000 119 100.00%
CPXPARAM_MIP_Cuts_GUBCovers 0
39
Node Left Objective IInf Best_Integer Best_Bound ItCnt Gap
0+ 0 nan nan 123.7135 0.0000 nan 100.00%
0+ 0 nan nan 89.1896 0.0000 nan 100.00%
0 0 0.0000 24 89.1896 0.0000 117 100.00%
0+ 0 nan nan 50.1463 0.0000 nan 100.00%
0+ 0 nan nan 40.4938 0.0000 nan 100.00%
0 2 0.0000 24 40.4938 0.0000 117 100.00%
CPXPARAM_MIP_Cuts_GUBCovers 0
